# Initialization
### units metal
atom_style atomic
## needs to be seen that the dimension can be changed between 2 and 3
dimension 3
## boundary needs to remain p p p for now
boundary p p p

# System Definition
lattice fcc 3.615
## region can only be block for now
region box block 0 10 0 10 0 10
create_box 1 box
create_atoms 1 box